12 48 6 10
17 12 14 16 10 13 15 11 2 8 11 5 7 13 11 7 17 11 16 13 12 16 3 11 17 1 6 2 7 15 8 20 4 14 1 10 9 10 17 8 3 5 19 2 14 16 19 12 
0.42 1.56 3.17 0.92 3.58 1.61 1.42 2.79 7.74 4.68 1.24 7.05 1.78 1.83 4.78 4.33 0.99 2.58 4.78 1.3 7.48 5.15 1.81 7.38 2.5 1.12 0.03 0.41 5.27 3.2 3.28 2.91 1.99 0.28 4.79 7.73 3.82 0.5 6.62 5.89 5.52 5.35 0.21 6.63 6.19 7.42 3.53 2.55 
7.96 1.26 1.52 2.07 0.13 0.97 6.11 5.66 5.14 4.88 6.93 4.36 3.73 3.39 5.12 2.32 2.33 0.95 6.92 1.26 4.06 7.92 2.68 6.23 3.72 6.96 0.66 0.36 1.63 3 1.72 3.62 3.6 7.79 3.09 5.71 4.66 4.28 4.71 1.46 5.55 4.64 7.93 0.79 7.21 0.7 5.85 6.01 
7.93 0.76 4.45 6.48 5.69 4.19 1.09 1.36 6.98 5.22 0.24 0.79 6.86 0.47 7.05 5.04 0.08 6.38 3.83 1.15 5.09 1.28 7.94 6.58 2.48 5.42 0.11 3.4 2.69 6.57 1.42 3.45 7.7 1.86 1.53 2.2 5.01 7.63 3.94 0.65 3.31 3.77 7.48 6.01 0 4.41 3.55 0.09 
5.93 6.47 7.54 6.18 3.95 4.81 7.5 0.36 4.41 2.87 1.6 5.86 3.87 1.93 7.51 1.12 1.66 1.14 4.8 4.12 4.58 2.67 0.53 7.66 5.11 5.66 5.94 1.64 3.35 3.78 2.46 3.12 7.1 7.63 7.66 4.63 6.31 1.5 1.44 1.63 3.22 7.99 2.65 4.41 3.19 3.72 7.96 5.91 
3.74 5.2 4.72 4.72 4.66 3.66 6.08 3.09 4 1.98 4.95 7.77 3.52 4.09 1.91 3.28 1.04 4.87 2.93 7.74 1.93 3.69 1.45 1.03 0.68 3.78 5.79 2.22 5.11 3.73 5.42 6.79 4.25 0.45 4.86 5.17 2.8 0.86 5.02 7.9 1.96 3.51 7.7 2.46 6.1 5.54 0.62 5.82 
7.21 2.45 2.36 5.64 7.62 5.13 6.41 3.02 5.11 2.63 1.84 6.2 0.74 7.36 2.39 6.59 3.11 1.43 6.29 5.88 3.03 1.12 3.65 6.19 4.71 7.11 0.18 2.78 5.16 2.62 3.18 5.22 0.27 2.17 3.82 4.67 7.75 6.4 5.93 1.41 7.26 7.82 5.65 3.46 6.18 0.36 6.23 0.57 
4 4 4 4 4 4 4 4 4 4 4 4 4 4 4 4 4 4 4 4 4 4 4 4 4 4 4 4 4 4 4 4 4 4 4 4 4 4 4 4 4 4 4 4 4 4 4 4 
2.3 7.85 2.14 0.68 3.92 6.51 1.38 1.92 7.96 5.22 3.07 0.18 6.44 4.62 1.77 4.2 1.58 5.54 1.35 5.83 5.28 1.64 5.72 3.64 0.37 7.37 2.9 3.25 3.22 7.79 5.41 3.96 2.87 3.17 7.59 2.4 1.63 3.93 6.2 4.55 7.22 0.6 7.09 2.54 0.93 0.82 0.41 2.62 
1.74 6.14 3.55 2.41 6.66 7.96 3.1 3.04 7.91 4.8 7.2 0.82 5.38 7.11 3.76 3.76 7.46 6.45 1.87 5.95 7.56 5.98 7.15 7.81 6.4 1.93 2.54 3.6 7.29 6.55 7.37 5.67 2.12 0.16 0.78 2.31 5.85 4.24 4.59 5.01 3.19 6.59 2.1 6 4.22 5.92 2.5 5.05 
1.8 1.88 0.73 5.32 1.84 5.04 3.78 5.35 6.73 3.39 0.75 1.06 6.15 2.05 2.93 0.27 4.79 0.15 0.91 7.43 5.49 6.58 7.44 5.5 5.1 4.23 7.69 4.05 2.19 5.07 1.81 7.18 6.25 2.54 0.9 3.24 7.12 6.99 6.81 2.97 3.08 6.26 2.78 5.95 2.15 4.64 7.74 3.55 
5.64 2.66 4.11 4.65 2.28 7.73 1.01 3.65 7.35 4.75 5.78 0.95 5.94 2.45 3.36 6.3 3.8 7.96 0.77 2.82 6.11 1.4 5.51 4.11 1.98 1.8 7.68 6.8 4.9 6.4 1.48 7.85 1.46 7.77 0.5 4.05 1.63 5.03 4.27 3.42 6.77 0.7 3.53 1.42 6.26 4.27 2.95 3.04 
7.56 6.14 4.57 7.68 5.21 3.95 1.27 0.83 4.66 7.02 5.04 4.03 3.31 0.42 4.98 4.43 2.11 4.17 0.7 5.35 1.88 6.65 5.77 7.76 6.23 5.23 6.07 5.02 7.42 5.67 5.48 5.92 7.52 7.41 5.59 3.45 0.73 1.72 2.39 2.84 4.23 4.89 5.69 6.54 3.66 4.07 3.45 6.47 
1 1 1 1 1 1 1 1 1 1 1 1 1 1 1 1 1 1 1 1 1 1 1 1 1 1 1 1 1 1 1 1 1 1 1 1 1 1 1 1 1 1 1 1 1 1 1 1 
1 1 1 1 1 1 1 1 1 1 1 1 1 1 1 1 1 1 1 1 1 1 1 1 1 1 1 1 1 1 1 1 1 1 1 1 1 1 1 1 1 1 1 1 1 1 1 1 
1 1 1 1 1 1 1 1 1 1 1 1 1 1 1 1 1 1 1 1 1 1 1 1 1 1 1 1 1 1 1 1 1 1 1 1 1 1 1 1 1 1 1 1 1 1 1 1 
1 1 1 1 1 1 1 1 1 1 1 1 1 1 1 1 1 1 1 1 1 1 1 1 1 1 1 1 1 1 1 1 1 1 1 1 1 1 1 1 1 1 1 1 1 1 1 1 
1 1 1 1 1 1 1 1 1 1 1 1 1 1 1 1 1 1 1 1 1 1 1 1 1 1 1 1 1 1 1 1 1 1 1 1 1 1 1 1 1 1 1 1 1 1 1 1 
1 1 1 1 1 1 1 1 1 1 1 1 1 1 1 1 1 1 1 1 1 1 1 1 1 1 1 1 1 1 1 1 1 1 1 1 1 1 1 1 1 1 1 1 1 1 1 1 
1 1 1 1 1 1 1 1 1 1 1 1 1 1 1 1 1 1 1 1 1 1 1 1 1 1 1 1 1 1 1 1 1 1 1 1 1 1 1 1 1 1 1 1 1 1 1 1 
1 1 1 1 1 1 1 1 1 1 1 1 1 1 1 1 1 1 1 1 1 1 1 1 1 1 1 1 1 1 1 1 1 1 1 1 1 1 1 1 1 1 1 1 1 1 1 1 
1 1 1 1 1 1 1 1 1 1 1 1 1 1 1 1 1 1 1 1 1 1 1 1 1 1 1 1 1 1 1 1 1 1 1 1 1 1 1 1 1 1 1 1 1 1 1 1 
1 1 1 1 1 1 1 1 1 1 1 1 1 1 1 1 1 1 1 1 1 1 1 1 1 1 1 1 1 1 1 1 1 1 1 1 1 1 1 1 1 1 1 1 1 1 1 1 
1 1 1 1 1 1 1 1 1 1 1 1 1 1 1 1 1 1 1 1 1 1 1 1 1 1 1 1 1 1 1 1 1 1 1 1 1 1 1 1 1 1 1 1 1 1 1 1 
1 1 1 1 1 1 1 1 1 1 1 1 1 1 1 1 1 1 1 1 1 1 1 1 1 1 1 1 1 1 1 1 1 1 1 1 1 1 1 1 1 1 1 1 1 1 1 1 
0.01 0.01 0.01 0.01 0.01 0.01 0.01 0.01 0.01 0.01 0.01 0.01 0.01 0.01 0.01 0.01 0.01 0.01 0.01 0.01 0.01 0.01 0.01 0.01 0.01 0.01 0.01 0.01 0.01 0.01 0.01 0.01 0.01 0.01 0.01 0.01 0.01 0.01 0.01 0.01 0.01 0.01 0.01 0.01 0.01 0.01 0.01 0.01 
0.02 0.02 0.02 0.02 0.02 0.02 0.02 0.02 0.02 0.02 0.02 0.02 0.02 0.02 0.02 0.02 0.02 0.02 0.02 0.02 0.02 0.02 0.02 0.02 0.02 0.02 0.02 0.02 0.02 0.02 0.02 0.02 0.02 0.02 0.02 0.02 0.02 0.02 0.02 0.02 0.02 0.02 0.02 0.02 0.02 0.02 0.02 0.02 
0.03 0.03 0.03 0.03 0.03 0.03 0.03 0.03 0.03 0.03 0.03 0.03 0.03 0.03 0.03 0.03 0.03 0.03 0.03 0.03 0.03 0.03 0.03 0.03 0.03 0.03 0.03 0.03 0.03 0.03 0.03 0.03 0.03 0.03 0.03 0.03 0.03 0.03 0.03 0.03 0.03 0.03 0.03 0.03 0.03 0.03 0.03 0.03 
0.04 0.04 0.04 0.04 0.04 0.04 0.04 0.04 0.04 0.04 0.04 0.04 0.04 0.04 0.04 0.04 0.04 0.04 0.04 0.04 0.04 0.04 0.04 0.04 0.04 0.04 0.04 0.04 0.04 0.04 0.04 0.04 0.04 0.04 0.04 0.04 0.04 0.04 0.04 0.04 0.04 0.04 0.04 0.04 0.04 0.04 0.04 0.04 
0.05 0.05 0.05 0.05 0.05 0.05 0.05 0.05 0.05 0.05 0.05 0.05 0.05 0.05 0.05 0.05 0.05 0.05 0.05 0.05 0.05 0.05 0.05 0.05 0.05 0.05 0.05 0.05 0.05 0.05 0.05 0.05 0.05 0.05 0.05 0.05 0.05 0.05 0.05 0.05 0.05 0.05 0.05 0.05 0.05 0.05 0.05 0.05 
0.06 0.06 0.06 0.06 0.06 0.06 0.06 0.06 0.06 0.06 0.06 0.06 0.06 0.06 0.06 0.06 0.06 0.06 0.06 0.06 0.06 0.06 0.06 0.06 0.06 0.06 0.06 0.06 0.06 0.06 0.06 0.06 0.06 0.06 0.06 0.06 0.06 0.06 0.06 0.06 0.06 0.06 0.06 0.06 0.06 0.06 0.06 0.06 
0.07 0.07 0.07 0.07 0.07 0.07 0.07 0.07 0.07 0.07 0.07 0.07 0.07 0.07 0.07 0.07 0.07 0.07 0.07 0.07 0.07 0.07 0.07 0.07 0.07 0.07 0.07 0.07 0.07 0.07 0.07 0.07 0.07 0.07 0.07 0.07 0.07 0.07 0.07 0.07 0.07 0.07 0.07 0.07 0.07 0.07 0.07 0.07 
0.2 0.2 0.2 0.2 0.2 0.2 0.2 0.2 0.2 0.2 0.2 0.2 0.2 0.2 0.2 0.2 0.2 0.2 0.2 0.2 0.2 0.2 0.2 0.2 0.2 0.2 0.2 0.2 0.2 0.2 0.2 0.2 0.2 0.2 0.2 0.2 0.2 0.2 0.2 0.2 0.2 0.2 0.2 0.2 0.2 0.2 0.2 0.2 
0.4 0.4 0.4 0.4 0.4 0.4 0.4 0.4 0.4 0.4 0.4 0.4 0.4 0.4 0.4 0.4 0.4 0.4 0.4 0.4 0.4 0.4 0.4 0.4 0.4 0.4 0.4 0.4 0.4 0.4 0.4 0.4 0.4 0.4 0.4 0.4 0.4 0.4 0.4 0.4 0.4 0.4 0.4 0.4 0.4 0.4 0.4 0.4 
0.6 0.6 0.6 0.6 0.6 0.6 0.6 0.6 0.6 0.6 0.6 0.6 0.6 0.6 0.6 0.6 0.6 0.6 0.6 0.6 0.6 0.6 0.6 0.6 0.6 0.6 0.6 0.6 0.6 0.6 0.6 0.6 0.6 0.6 0.6 0.6 0.6 0.6 0.6 0.6 0.6 0.6 0.6 0.6 0.6 0.6 0.6 0.6 
0.8 0.8 0.8 0.8 0.8 0.8 0.8 0.8 0.8 0.8 0.8 0.8 0.8 0.8 0.8 0.8 0.8 0.8 0.8 0.8 0.8 0.8 0.8 0.8 0.8 0.8 0.8 0.8 0.8 0.8 0.8 0.8 0.8 0.8 0.8 0.8 0.8 0.8 0.8 0.8 0.8 0.8 0.8 0.8 0.8 0.8 0.8 0.8 
1 1 1 1 1 1 1 1 1 1 1 1 1 1 1 1 1 1 1 1 1 1 1 1 1 1 1 1 1 1 1 1 1 1 1 1 1 1 1 1 1 1 1 1 1 1 1 1 
